Welcome to the CBC MILP Solver 
Version: devel 
Build Date: Oct  1 2020 

command line - ./cbc /home/danilo/CBCDanilo/bin/input/cbc-test-set/fhnw-binpack4-4.mps.gz MaxN 0 passC 1 cuts Off knapsack On heur off preprocess off sec 1200 solve (default strategy 1)
At line 1 NAME fhnw-binpack4-4
At line 2 ROWS
At line 624 COLUMNS
At line 2961 RHS
At line 3534 BOUNDS
At line 4055 ENDATA
Problem fhnw-binpack4-4 has 620 rows, 520 columns and 2332 elements
Coin0008I fhnw-binpack4-4 read with 0 errors
maxNodes was changed from 2147483647 to 0
passCuts was changed from 20 to 1
Option for cutsOnOff changed from on to off
Option for knapsackCuts changed from off to on
Option for heuristicsOnOff changed from on to off
Option for preprocess changed from sos to off
seconds was changed from 1e+100 to 1200
Continuous objective value is 0 - 0.02 seconds
Cbc0045I No integer variables out of 481 objects (381 integer) have costs
Cbc0045I branch on satisfied N create fake objective Y random cost Y
Cbc0013I At root node, 0 cuts changed objective from 0 to 0 in 1 passes
Cbc0014I Cut generator 0 (Knapsack) - 0 row cuts average 0.0 elements, 0 column cuts (0 active)  in 0.021 seconds - new frequency is 1000
Cbc0003I Exiting on maximum nodes
Cbc0005I Partial search - best objective 1e+50 (best possible 0), took 0 iterations and 0 nodes (0.06 seconds)
Cbc0035I Maximum depth 0, 0 variables fixed on reduced cost
Cuts at root node changed objective from 0 to 0
Knapsack was tried 1 times and created 0 cuts of which 0 were active after adding rounds of cuts (0.021 seconds)

Result - Stopped on node limit

No feasible solution found
Lower bound:                    0.000
Enumerated nodes:               0
Total iterations:               0
Time (CPU seconds):             0.06
Time (Wallclock seconds):       0.06

Total time (CPU seconds):       0.06   (Wallclock seconds):       0.06

